c description: Random 3-CNF over 19 variables and 81 clauses
c generator: CNFgen (0.9.2)
c copyright: (C) 2012-2022 Massimo Lauria <massimo.lauria@uniroma1.it>
c url: https://massimolauria.net/cnfgen
c command line: cnfgen --output CNF_4.28/19_bit_81_422.cnf randkcnf 3 19 81
c
p cnf 19 81
1 5 -13 0
-4 -11 13 0
-4 -16 17 0
-6 -13 14 0
11 14 17 0
4 9 11 0
-3 6 -10 0
5 10 15 0
2 -8 18 0
5 7 18 0
6 -9 -14 0
-3 4 -16 0
5 -13 -19 0
-2 -3 17 0
-4 10 -18 0
-6 -8 -18 0
-8 -10 13 0
-5 11 16 0
-10 -12 16 0
-1 -7 11 0
11 -12 -15 0
-4 10 -19 0
-1 8 -13 0
-7 -16 -19 0
2 -10 -11 0
5 9 -17 0
-3 8 -18 0
-11 16 19 0
3 -5 12 0
13 -14 17 0
-1 4 -7 0
5 -11 17 0
-10 14 -16 0
9 -11 15 0
1 11 -17 0
-1 14 15 0
-1 8 10 0
8 11 13 0
2 -7 -10 0
1 -7 10 0
3 7 -9 0
8 13 19 0
-1 -8 9 0
15 -17 -19 0
1 -13 16 0
-2 5 -11 0
1 -13 17 0
7 10 -17 0
10 13 -17 0
-7 8 18 0
12 -13 16 0
-3 -15 19 0
3 -8 17 0
-1 5 6 0
-4 8 18 0
4 -10 13 0
-1 11 14 0
-4 5 -7 0
-4 -8 18 0
8 10 -16 0
3 -9 15 0
5 15 16 0
-1 -9 -12 0
-3 7 19 0
9 -14 18 0
5 6 -18 0
-3 8 16 0
1 -6 19 0
-10 -13 -16 0
1 5 -14 0
10 -13 -16 0
2 11 18 0
-2 -4 -6 0
-7 -16 19 0
-2 14 -17 0
1 7 9 0
-11 12 13 0
6 -9 12 0
4 6 -13 0
7 -10 -19 0
5 -17 18 0
